65529572549077792955015,2,1,2,07,8,1,2,08,12,1,2,014,5,1,2,07,7,1,2,015,12,1,2,02,7,1,2,04,9,1,2,06,15,1,2,013,1,1,2,04,4,1,2,04,8,1,2,02,12,1,2,09,9,1,2,07,1,1,2,08,1,1,2,09,7,1,2,03,5,1,2,06,14,1,2,03,14,1,2,08,1,1,2,09,3,1,2,02,4,1,2,010,8,1,2,014,4,1,2,02,9,1,2,010,6,1,2,010,11,1,2,03,2,1,2,03,7,1,2,05,6,1,2,05,6,1,2,011,11,1,2,08,2,1,2,08,8,1,2,012,15,1,2,03,7,1,2,012,8,1,2,06,6,1,2,03,1,1,2,015,6,1,2,04,9,1,2,09,2,1,2,015,11,1,2,012,5,1,2,010,6,1,2,01,3,1,2,02,3,1,2,01,15,1,2,015,1,1,2,0